NAME : instances/50-tsp/instance-1.tsp
COMMENT : No comment
TYPE : TSP
DIMENSION: 50
EDGE_WEIGHT_TYPE : EUC_2D
NODE_COORD_SECTION
1 1164 1199 
2 931 579 
3 273 542 
4 1016 1232 
5 1224 682 
6 1763 382 
7 1622 1454 
8 35 1544 
9 1670 244 
10 577 1501 
11 253 1903 
12 757 500 
13 1938 451 
14 1604 1959 
15 1771 1754 
16 235 1398 
17 415 575 
18 261 1518 
19 410 1482 
20 890 627 
21 1488 1499 
22 243 958 
23 1842 509 
24 914 108 
25 876 1792 
26 137 565 
27 63 974 
28 1570 1437 
29 1537 772 
30 512 1420 
31 319 468 
32 119 1435 
33 455 854 
34 168 1850 
35 467 757 
36 75 1735 
37 1668 1158 
38 285 1608 
39 1544 222 
40 1566 1623 
41 1131 765 
42 1195 1239 
43 1138 1085 
44 526 1469 
45 688 815 
46 1424 1940 
47 136 1329 
48 201 1093 
49 1992 971 
50 1212 166 
EOF
